% seed = 7308508

mint = 49;
% maxt = 186;

nActs = 42;
dur = [0,9,3,3,9,3,7,9,10,3,8,9,3,7,2,1,3,4,7,3,6,5,2,2,3,6,9,4,1,2,3,2,3,4,4,3,10,2,4,5,3,0];

nSkills = 4;
sreq = [| 0,0,0,0,
	| 0,7,3,3,
	| 0,3,2,5,
	| 4,2,3,4,
	| 0,2,2,7,
	| 2,3,3,2,
	| 2,4,3,3,
	| 0,3,7,4,
	| 7,6,2,1,
	| 3,5,3,7,
	| 6,3,7,0,
	| 0,0,5,5,
	| 5,0,4,3,
	| 3,5,0,0,
	| 0,5,6,0,
	| 0,6,2,0,
	| 5,2,0,2,
	| 2,7,0,0,
	| 4,3,0,4,
	| 0,3,6,5,
	| 3,1,2,3,
	| 6,2,1,1,
	| 4,4,0,0,
	| 5,0,5,0,
	| 4,2,5,2,
	| 4,3,2,3,
	| 7,2,2,3,
	| 4,6,0,5,
	| 7,0,2,2,
	| 6,5,0,7,
	| 0,2,2,4,
	| 4,2,5,4,
	| 7,0,0,7,
	| 5,0,7,0,
	| 0,7,4,5,
	| 0,7,5,5,
	| 0,3,0,5,
	| 2,3,0,5,
	| 0,2,5,6,
	| 0,4,4,2,
	| 3,4,3,2,
	| 0,0,0,0, |];

nResources = 30;
mastery = [| true,true,true,false,
	| false,false,true,false,
	| true,false,false,false,
	| true,false,false,true,
	| true,false,false,false,
	| false,true,false,true,
	| true,false,false,false,
	| false,true,false,false,
	| false,true,true,false,
	| true,false,false,true,
	| false,false,true,true,
	| false,true,true,false,
	| true,false,true,true,
	| false,true,false,true,
	| false,false,true,true,
	| true,true,true,false,
	| false,true,false,true,
	| true,true,true,false,
	| false,true,true,false,
	| false,false,false,true,
	| false,false,false,true,
	| true,false,true,true,
	| false,true,true,true,
	| false,false,true,false,
	| false,true,true,false,
	| false,false,false,true,
	| false,false,false,true,
	| true,true,true,false,
	| false,true,true,false,
	| false,true,true,true, |];

nPrecs = 85;
pred = [1,1,1,2,2,2,3,3,3,4,4,4,5,5,5,6,6,6,7,7,7,8,8,8,9,9,9,10,10,10,11,11,11,12,12,12,13,13,13,14,14,14,15,15,16,17,17,18,18,19,19,20,20,20,21,21,21,22,22,22,23,23,23,24,24,24,25,26,27,28,29,30,30,31,31,32,33,34,35,36,37,38,39,40,41];
succ = [2,3,4,14,23,8,17,19,12,11,5,6,9,34,21,26,7,16,10,13,38,29,38,16,13,22,16,33,27,22,35,28,15,18,27,35,17,18,24,20,30,24,17,27,18,36,29,33,40,20,30,34,22,32,33,23,24,41,25,40,25,31,32,25,29,31,28,37,39,37,40,34,31,41,36,38,36,35,41,37,39,39,42,42,42];

nUnrels = 438;
unpred = [2,2,2,2,2,2,2,2,2,2,2,2,2,2,2,2,3,3,3,3,3,3,3,3,3,3,3,3,3,3,3,3,4,4,4,4,4,4,5,5,5,5,5,5,5,5,5,5,5,5,5,6,6,6,6,6,6,6,6,6,6,6,6,6,6,7,7,7,7,7,7,7,7,7,7,7,7,7,7,7,7,8,8,8,8,8,8,8,8,8,8,8,8,8,8,8,8,8,8,8,8,8,8,8,8,9,9,9,9,9,9,9,9,9,9,9,9,9,9,9,9,10,10,10,10,10,10,10,10,10,10,10,10,10,10,10,10,10,10,10,10,10,11,11,11,11,11,11,11,11,11,11,11,11,11,11,11,11,11,11,11,12,12,12,12,12,12,12,12,12,12,12,12,12,12,12,12,12,12,12,12,13,13,13,13,13,13,13,13,13,13,13,13,13,13,13,14,14,14,14,14,14,14,14,14,14,15,15,15,15,15,15,15,15,15,15,15,15,15,15,15,15,15,15,15,16,16,16,16,16,16,16,16,16,16,16,16,16,16,16,16,16,16,16,17,17,17,17,17,17,17,17,17,17,17,17,17,17,17,17,17,17,17,18,18,18,18,18,18,18,18,18,18,18,18,18,18,18,18,18,18,19,19,19,19,19,19,19,20,20,20,20,20,20,20,20,20,20,21,21,21,21,21,21,22,22,22,22,22,22,22,22,22,22,22,22,22,23,23,23,23,23,23,23,23,23,24,24,24,24,24,24,24,24,25,25,25,25,25,25,25,25,25,25,25,25,25,26,26,26,26,26,26,26,26,26,26,26,26,26,27,27,27,27,27,27,27,27,27,27,27,27,27,28,28,28,28,28,28,28,28,28,28,28,29,29,29,29,29,29,29,29,29,29,29,30,30,30,30,31,31,31,31,31,31,32,32,32,32,32,32,32,33,33,33,33,33,34,34,34,34,34,35,35,35,35,35,36,36,36,37,37,37,38,38,39,39,40];
unsucc = [3,4,5,6,7,9,10,11,12,13,15,17,19,21,26,27,4,5,6,7,8,9,10,11,13,14,15,16,21,23,24,26,8,12,14,19,20,30,6,7,8,10,11,12,14,15,19,20,26,27,30,8,9,11,12,14,15,19,20,21,23,30,32,34,35,8,9,11,12,14,15,16,19,20,21,23,26,30,32,34,35,9,10,11,12,13,14,15,17,19,20,21,22,23,24,25,26,27,28,30,31,32,34,35,41,10,11,12,14,15,19,20,21,23,26,27,30,32,34,35,38,11,12,13,14,15,16,17,18,19,20,21,23,24,26,29,30,31,32,34,35,38,12,13,14,16,18,19,20,21,22,23,24,25,26,30,31,32,33,34,38,13,14,15,16,17,19,20,21,22,23,24,25,26,28,29,30,31,32,34,38,14,15,16,19,20,21,22,23,26,27,30,32,34,35,38,15,16,17,18,19,21,23,26,27,33,16,18,19,20,21,22,23,24,25,26,28,30,31,32,33,34,35,38,41,17,19,20,21,22,23,24,25,26,27,28,29,30,31,32,34,35,38,41,18,19,20,21,22,23,24,25,26,27,28,30,31,32,33,34,35,38,41,19,20,21,22,23,24,25,26,27,28,29,30,31,32,34,35,38,41,21,23,24,26,27,29,33,21,23,24,26,27,29,30,31,33,36,22,26,27,30,34,35,23,24,26,27,29,30,31,32,33,34,35,36,38,24,26,27,29,30,33,34,35,40,26,27,30,32,33,34,35,38,26,27,29,30,31,32,33,34,35,36,38,40,41,27,28,29,30,31,32,33,34,35,36,38,40,41,28,29,30,31,32,33,34,35,36,37,38,40,41,29,30,31,32,33,34,35,36,38,40,41,30,31,32,33,34,35,36,37,38,39,41,32,33,38,40,32,33,34,35,38,40,33,34,35,36,37,40,41,34,35,38,40,41,36,37,38,39,40,36,37,38,39,40,38,40,41,38,40,41,40,41,40,41,41];

USEFUL_RES = [{},
	{1,2,4,6,8,9,10,11,12,13,14,15,16,17,18,19,20,21,22,23,24,25,26,27,28,29,30},
	{1,2,4,6,8,9,10,11,12,13,14,15,16,17,18,19,20,21,22,23,24,25,26,27,28,29,30},
	{1,2,3,4,5,6,7,8,9,10,11,12,13,14,15,16,17,18,19,20,21,22,23,24,25,26,27,28,29,30},
	{1,2,4,6,8,9,10,11,12,13,14,15,16,17,18,19,20,21,22,23,24,25,26,27,28,29,30},
	{1,2,3,4,5,6,7,8,9,10,11,12,13,14,15,16,17,18,19,20,21,22,23,24,25,26,27,28,29,30},
	{1,2,3,4,5,6,7,8,9,10,11,12,13,14,15,16,17,18,19,20,21,22,23,24,25,26,27,28,29,30},
	{1,2,4,6,8,9,10,11,12,13,14,15,16,17,18,19,20,21,22,23,24,25,26,27,28,29,30},
	{1,2,3,4,5,6,7,8,9,10,11,12,13,14,15,16,17,18,19,20,21,22,23,24,25,26,27,28,29,30},
	{1,2,3,4,5,6,7,8,9,10,11,12,13,14,15,16,17,18,19,20,21,22,23,24,25,26,27,28,29,30},
	{1,2,3,4,5,6,7,8,9,10,11,12,13,14,15,16,17,18,19,22,23,24,25,28,29,30},
	{1,2,4,6,9,10,11,12,13,14,15,16,17,18,19,20,21,22,23,24,25,26,27,28,29,30},
	{1,2,3,4,5,6,7,9,10,11,12,13,14,15,16,17,18,19,20,21,22,23,24,25,26,27,28,29,30},
	{1,3,4,5,6,7,8,9,10,12,13,14,16,17,18,19,22,23,25,28,29,30},
	{1,2,6,8,9,11,12,13,14,15,16,17,18,19,22,23,24,25,28,29,30},
	{1,2,6,8,9,11,12,13,14,15,16,17,18,19,22,23,24,25,28,29,30},
	{1,3,4,5,6,7,8,9,10,11,12,13,14,15,16,17,18,19,20,21,22,23,25,26,27,28,29,30},
	{1,3,4,5,6,7,8,9,10,12,13,14,16,17,18,19,22,23,25,28,29,30},
	{1,3,4,5,6,7,8,9,10,11,12,13,14,15,16,17,18,19,20,21,22,23,25,26,27,28,29,30},
	{1,2,4,6,8,9,10,11,12,13,14,15,16,17,18,19,20,21,22,23,24,25,26,27,28,29,30},
	{1,2,3,4,5,6,7,8,9,10,11,12,13,14,15,16,17,18,19,20,21,22,23,24,25,26,27,28,29,30},
	{1,2,3,4,5,6,7,8,9,10,11,12,13,14,15,16,17,18,19,20,21,22,23,24,25,26,27,28,29,30},
	{1,3,4,5,6,7,8,9,10,12,13,14,16,17,18,19,22,23,25,28,29,30},
	{1,2,3,4,5,7,9,10,11,12,13,15,16,18,19,22,23,24,25,28,29,30},
	{1,2,3,4,5,6,7,8,9,10,11,12,13,14,15,16,17,18,19,20,21,22,23,24,25,26,27,28,29,30},
	{1,2,3,4,5,6,7,8,9,10,11,12,13,14,15,16,17,18,19,20,21,22,23,24,25,26,27,28,29,30},
	{1,2,3,4,5,6,7,8,9,10,11,12,13,14,15,16,17,18,19,20,21,22,23,24,25,26,27,28,29,30},
	{1,3,4,5,6,7,8,9,10,11,12,13,14,15,16,17,18,19,20,21,22,23,25,26,27,28,29,30},
	{1,2,3,4,5,6,7,9,10,11,12,13,14,15,16,17,18,19,20,21,22,23,24,25,26,27,28,29,30},
	{1,3,4,5,6,7,8,9,10,11,12,13,14,15,16,17,18,19,20,21,22,23,25,26,27,28,29,30},
	{1,2,4,6,8,9,10,11,12,13,14,15,16,17,18,19,20,21,22,23,24,25,26,27,28,29,30},
	{1,2,3,4,5,6,7,8,9,10,11,12,13,14,15,16,17,18,19,20,21,22,23,24,25,26,27,28,29,30},
	{1,3,4,5,6,7,10,11,13,14,15,16,17,18,20,21,22,23,26,27,28,30},
	{1,2,3,4,5,7,9,10,11,12,13,15,16,18,19,22,23,24,25,28,29,30},
	{1,2,4,6,8,9,10,11,12,13,14,15,16,17,18,19,20,21,22,23,24,25,26,27,28,29,30},
	{1,2,4,6,8,9,10,11,12,13,14,15,16,17,18,19,20,21,22,23,24,25,26,27,28,29,30},
	{1,4,6,8,9,10,11,12,13,14,15,16,17,18,19,20,21,22,23,25,26,27,28,29,30},
	{1,3,4,5,6,7,8,9,10,11,12,13,14,15,16,17,18,19,20,21,22,23,25,26,27,28,29,30},
	{1,2,4,6,8,9,10,11,12,13,14,15,16,17,18,19,20,21,22,23,24,25,26,27,28,29,30},
	{1,2,4,6,8,9,10,11,12,13,14,15,16,17,18,19,20,21,22,23,24,25,26,27,28,29,30},
	{1,2,3,4,5,6,7,8,9,10,11,12,13,14,15,16,17,18,19,20,21,22,23,24,25,26,27,28,29,30},
	{}];

POTENTIAL_ACT = [{2,3,4,5,6,7,8,9,10,11,12,13,14,15,16,17,18,19,20,21,22,23,24,25,26,27,28,29,30,31,32,33,34,35,36,37,38,39,40,41},
	{2,3,4,5,6,7,8,9,10,11,12,13,15,16,20,21,22,24,25,26,27,29,31,32,34,35,36,39,40,41},
	{4,6,7,9,10,11,13,14,17,18,19,21,22,23,24,25,26,27,28,29,30,32,33,34,38,41},
	{2,3,4,5,6,7,8,9,10,11,12,13,14,17,18,19,20,21,22,23,24,25,26,27,28,29,30,31,32,33,34,35,36,37,38,39,40,41},
	{4,6,7,9,10,11,13,14,17,18,19,21,22,23,24,25,26,27,28,29,30,32,33,34,38,41},
	{2,3,4,5,6,7,8,9,10,11,12,13,14,15,16,17,18,19,20,21,22,23,25,26,27,28,29,30,31,32,33,35,36,37,38,39,40,41},
	{4,6,7,9,10,11,13,14,17,18,19,21,22,23,24,25,26,27,28,29,30,32,33,34,38,41},
	{2,3,4,5,6,7,8,9,10,11,14,15,16,17,18,19,20,21,22,23,25,26,27,28,30,31,32,35,36,37,38,39,40,41},
	{2,3,4,5,6,7,8,9,10,11,12,13,14,15,16,17,18,19,20,21,22,23,24,25,26,27,28,29,30,31,32,34,35,36,37,38,39,40,41},
	{2,3,4,5,6,7,8,9,10,11,12,13,14,17,18,19,20,21,22,23,24,25,26,27,28,29,30,31,32,33,34,35,36,37,38,39,40,41},
	{2,3,4,5,6,7,8,9,10,11,12,13,15,16,17,19,20,21,22,24,25,26,27,28,29,30,31,32,33,34,35,36,37,38,39,40,41},
	{2,3,4,5,6,7,8,9,10,11,12,13,14,15,16,17,18,19,20,21,22,23,24,25,26,27,28,29,30,31,32,34,35,36,37,38,39,40,41},
	{2,3,4,5,6,7,8,9,10,11,12,13,14,15,16,17,18,19,20,21,22,23,24,25,26,27,28,29,30,31,32,33,34,35,36,37,38,39,40,41},
	{2,3,4,5,6,7,8,9,10,11,12,13,14,15,16,17,18,19,20,21,22,23,25,26,27,28,29,30,31,32,33,35,36,37,38,39,40,41},
	{2,3,4,5,6,7,8,9,10,11,12,13,15,16,17,19,20,21,22,24,25,26,27,28,29,30,31,32,33,34,35,36,37,38,39,40,41},
	{2,3,4,5,6,7,8,9,10,11,12,13,14,15,16,17,18,19,20,21,22,23,24,25,26,27,28,29,30,31,32,33,34,35,36,37,38,39,40,41},
	{2,3,4,5,6,7,8,9,10,11,12,13,14,15,16,17,18,19,20,21,22,23,25,26,27,28,29,30,31,32,33,35,36,37,38,39,40,41},
	{2,3,4,5,6,7,8,9,10,11,12,13,14,15,16,17,18,19,20,21,22,23,24,25,26,27,28,29,30,31,32,33,34,35,36,37,38,39,40,41},
	{2,3,4,5,6,7,8,9,10,11,12,13,14,15,16,17,18,19,20,21,22,23,24,25,26,27,28,29,30,31,32,34,35,36,37,38,39,40,41},
	{2,3,4,5,6,7,8,9,10,12,13,17,19,20,21,22,25,26,27,28,29,30,31,32,33,35,36,37,38,39,40,41},
	{2,3,4,5,6,7,8,9,10,12,13,17,19,20,21,22,25,26,27,28,29,30,31,32,33,35,36,37,38,39,40,41},
	{2,3,4,5,6,7,8,9,10,11,12,13,14,15,16,17,18,19,20,21,22,23,24,25,26,27,28,29,30,31,32,33,34,35,36,37,38,39,40,41},
	{2,3,4,5,6,7,8,9,10,11,12,13,14,15,16,17,18,19,20,21,22,23,24,25,26,27,28,29,30,31,32,33,34,35,36,37,38,39,40,41},
	{2,3,4,5,6,7,8,9,10,11,12,13,15,16,20,21,22,24,25,26,27,29,31,32,34,35,36,39,40,41},
	{2,3,4,5,6,7,8,9,10,11,12,13,14,15,16,17,18,19,20,21,22,23,24,25,26,27,28,29,30,31,32,34,35,36,37,38,39,40,41},
	{2,3,4,5,6,7,8,9,10,12,13,17,19,20,21,22,25,26,27,28,29,30,31,32,33,35,36,37,38,39,40,41},
	{2,3,4,5,6,7,8,9,10,12,13,17,19,20,21,22,25,26,27,28,29,30,31,32,33,35,36,37,38,39,40,41},
	{2,3,4,5,6,7,8,9,10,11,12,13,14,15,16,17,18,19,20,21,22,23,24,25,26,27,28,29,30,31,32,33,34,35,36,37,38,39,40,41},
	{2,3,4,5,6,7,8,9,10,11,12,13,14,15,16,17,18,19,20,21,22,23,24,25,26,27,28,29,30,31,32,34,35,36,37,38,39,40,41},
	{2,3,4,5,6,7,8,9,10,11,12,13,14,15,16,17,18,19,20,21,22,23,24,25,26,27,28,29,30,31,32,33,34,35,36,37,38,39,40,41}];
